NAME: map1_180
TYPE: TSP
COMMENT: autogenerated using a wonderful map creator
DIMENSION: 210
EDGE_WEIGHT_TYPE: EUC_2D
NODE_COORD_SECTION
1 21.0 52.0
2 22.0 52.0
3 23.0 52.0
4 21.0 54.0
5 22.0 54.0
6 23.0 54.0
7 22.0 11.0
8 22.0 10.0
9 75.0 8.0
10 74.0 8.0
11 67.0 37.0
12 67.0 38.0
13 67.0 39.0
14 67.0 40.0
15 67.0 41.0
16 24.0 52.0
17 25.0 52.0
18 24.0 54.0
19 25.0 54.0
20 22.0 9.0
21 22.0 8.0
22 22.0 7.0
23 73.0 8.0
24 72.0 8.0
25 71.0 8.0
26 67.0 42.0
27 67.0 43.0
28 67.0 44.0
29 67.0 45.0
30 67.0 46.0
31 21.0 51.0
32 22.0 51.0
33 23.0 51.0
34 21.0 55.0
35 22.0 55.0
36 23.0 55.0
37 23.0 11.0
38 23.0 10.0
39 75.0 9.0
40 74.0 9.0
41 66.0 37.0
42 66.0 38.0
43 66.0 39.0
44 66.0 40.0
45 66.0 41.0
46 24.0 51.0
47 25.0 51.0
48 24.0 55.0
49 25.0 55.0
50 23.0 9.0
51 23.0 8.0
52 23.0 7.0
53 73.0 9.0
54 72.0 9.0
55 71.0 9.0
56 66.0 42.0
57 66.0 43.0
58 66.0 44.0
59 66.0 45.0
60 66.0 46.0
61 41.0 40.0
62 15.0 21.0
63 55.0 2.0
64 72.0 18.0
65 35.0 33.0
66 71.0 20.0
67 47.0 53.0
68 55.0 11.0
69 26.0 21.0
70 53.0 23.0
71 10.0 52.0
72 59.0 18.0
73 10.0 61.0
74 12.0 34.0
75 66.0 14.0
76 57.0 11.0
77 9.0 26.0
78 40.0 59.0
79 11.0 23.0
80 12.0 52.0
81 24.0 26.0
82 54.0 6.0
83 13.0 35.0
84 62.0 19.0
85 42.0 50.0
86 54.0 15.0
87 10.0 45.0
88 55.0 13.0
89 42.0 59.0
90 45.0 21.0
91 56.0 30.0
92 47.0 27.0
93 23.0 27.0
94 63.0 45.0
95 40.0 43.0
96 69.0 24.0
97 14.0 24.0
98 12.0 36.0
99 17.0 23.0
100 14.0 42.0
101 66.0 25.0
102 13.0 28.0
103 18.0 21.0
104 13.0 37.0
105 59.0 4.0
106 57.0 43.0
107 9.0 58.0
108 69.0 17.0
109 54.0 44.0
110 55.0 36.0
111 58.0 35.0
112 50.0 40.0
113 13.0 21.0
114 72.0 15.0
115 13.0 30.0
116 40.0 20.0
117 77.0 14.0
118 6.0 27.0
119 57.0 45.0
120 58.0 10.0
121 78.0 22.0
122 58.0 19.0
123 37.0 30.0
124 60.0 25.0
125 13.0 60.0
126 36.0 34.0
127 8.0 27.0
128 42.0 29.0
129 33.0 26.0
130 65.0 24.0
131 26.0 20.0
132 41.0 39.0
133 63.0 15.0
134 46.0 29.0
135 57.0 38.0
136 54.0 30.0
137 78.0 15.0
138 41.0 60.0
139 49.0 52.0
140 40.0 58.0
141 41.0 23.0
142 58.0 39.0
143 42.0 31.0
144 10.0 26.0
145 59.0 56.0
146 42.0 49.0
147 63.0 17.0
148 31.0 21.0
149 20.0 21.0
150 39.0 34.0
151 11.0 52.0
152 9.0 55.0
153 43.0 59.0
154 59.0 31.0
155 30.0 22.0
156 42.0 33.0
157 68.0 15.0
158 71.0 14.0
159 9.0 39.0
160 3.0 53.0
161 14.0 53.0
162 56.0 13.0
163 40.0 26.0
164 54.0 25.0
165 60.0 59.0
166 11.0 54.0
167 61.0 3.0
168 67.0 19.0
169 55.0 17.0
170 13.0 48.0
171 38.0 47.0
172 4.0 24.0
173 8.0 24.0
174 42.0 26.0
175 10.0 21.0
176 76.0 21.0
177 63.0 3.0
178 66.0 29.0
179 54.0 9.0
180 11.0 47.0
181 55.0 10.0
182 21.0 24.0
183 56.0 27.0
184 36.0 24.0
185 45.0 27.0
186 34.0 27.0
187 56.0 54.0
188 71.0 18.0
189 12.0 51.0
190 68.0 28.0
191 5.0 54.0
192 26.0 22.0
193 72.0 19.0
194 13.0 34.0
195 7.0 27.0
196 58.0 11.0
197 59.0 19.0
198 28.0 22.0
199 30.0 28.0
200 39.0 61.0
201 42.0 30.0
202 65.0 25.0
203 2.0 21.0
204 5.0 56.0
205 6.0 21.0
206 55.0 5.0
207 59.0 3.0
208 43.0 49.0
209 38.0 35.0
210 53.0 26.0
211 55.0 23.0
212 44.0 57.0
213 42.0 23.0
214 39.0 54.0
215 53.0 53.0
216 65.0 27.0
217 2.0 23.0
218 63.0 18.0
219 15.0 26.0
220 53.0 37.0
221 13.0 22.0
222 44.0 34.0
223 13.0 31.0
224 38.0 30.0
225 62.0 15.0
226 58.0 8.0
227 41.0 56.0
228 64.0 21.0
229 55.0 18.0
230 56.0 17.0
231 20.0 27.0
232 10.0 59.0
233 36.0 23.0
234 75.0 15.0
235 65.0 22.0
236 14.0 38.0
237 66.0 21.0
238 51.0 32.0
239 32.0 28.0
240 68.0 27.0
START_DEPOT_SECTION
1
2
3
4
5
6
7
8
9
10
11
12
13
14
15
16
17
18
19
20
21
22
23
24
25
26
27
28
29
30
-1
END_DEPOT_SECTION
31
32
33
34
35
36
37
38
39
40
41
42
43
44
45
46
47
48
49
50
51
52
53
54
55
56
57
58
59
60
-1
EOF
